%%%mzn-stat: initTime=0.017001999
%%%mzn-stat: objective=1224
%%%mzn-stat: nodes=34491
%%%mzn-stat: restarts=21
%%%mzn-stat: peakDepth=394
%%%mzn-stat: solveTime=5.167117021
%%%mzn-stat: variables=807
%%%mzn-stat: propagators=1789
%%%mzn-stat: failures=24665
%%%mzn-stat: propagations=5624736
%%%mzn-stat: nogoods=24665
%%%mzn-stat: AverageConflictSize=14.456395702412324
%%%mzn-stat: NumUnitNogoodsLearned=232
%%%mzn-stat: AverageLearnedNogoodLength=37.55698357997162
%%%mzn-stat: AverageBacktrackAmount=0
%%%mzn-stat: AverageLbd=11.724102979931077
%%%mzn-stat-end
maxleg = 1224;
succ = array1d(1..50,[32, 3, 15, 1, 4, 43, 8, 23, 21, 47, 5, 34, 30, 35, 38, 25, 20, 39, 33, 27, 18, 11, 6, 9, 36, 50, 42, 19, 49, 41, 46, 7, 14, 28, 22, 29, 44, 45, 13, 17, 2, 26, 10, 16, 40, 12, 24, 31, 48, 37]);
% time elapsed: 7.57 s
----------
%%%mzn-stat: initTime=0.017001999
%%%mzn-stat: objective=664
%%%mzn-stat: nodes=41999
%%%mzn-stat: restarts=30
%%%mzn-stat: peakDepth=474
%%%mzn-stat: solveTime=5.955475397
%%%mzn-stat: variables=807
%%%mzn-stat: propagators=1789
%%%mzn-stat: failures=28858
%%%mzn-stat: propagations=6526480
%%%mzn-stat: nogoods=28858
%%%mzn-stat: AverageConflictSize=13.627832836648416
%%%mzn-stat: NumUnitNogoodsLearned=232
%%%mzn-stat: AverageLearnedNogoodLength=35.689964654515215
%%%mzn-stat: AverageBacktrackAmount=0
%%%mzn-stat: AverageLbd=11.502702890013168
%%%mzn-stat-end
maxleg = 664;
succ = array1d(1..50,[32, 3, 15, 1, 4, 43, 8, 23, 44, 47, 5, 34, 30, 35, 22, 25, 20, 39, 33, 27, 18, 11, 6, 21, 36, 50, 42, 14, 49, 41, 46, 38, 13, 28, 19, 17, 29, 45, 9, 7, 2, 26, 10, 16, 40, 12, 24, 31, 48, 37]);
% time elapsed: 8.35 s
----------
%%%mzn-stat: initTime=0.017001999
%%%mzn-stat: objective=378
%%%mzn-stat: nodes=43996
%%%mzn-stat: restarts=33
%%%mzn-stat: peakDepth=474
%%%mzn-stat: solveTime=6.116322934
%%%mzn-stat: variables=807
%%%mzn-stat: propagators=1789
%%%mzn-stat: failures=29524
%%%mzn-stat: propagations=6680252
%%%mzn-stat: nogoods=29524
%%%mzn-stat: AverageConflictSize=13.609470261482183
%%%mzn-stat: NumUnitNogoodsLearned=232
%%%mzn-stat: AverageLearnedNogoodLength=35.672605338030074
%%%mzn-stat: AverageBacktrackAmount=0
%%%mzn-stat: AverageLbd=11.512430564964097
%%%mzn-stat-end
maxleg = 378;
succ = array1d(1..50,[32, 3, 15, 1, 4, 47, 8, 23, 44, 6, 5, 34, 30, 35, 22, 25, 20, 39, 33, 27, 18, 11, 17, 21, 50, 43, 42, 14, 49, 41, 46, 38, 13, 28, 19, 16, 29, 45, 9, 7, 2, 26, 10, 36, 40, 12, 24, 31, 48, 37]);
% time elapsed: 8.51 s
----------
%%%mzn-stat: initTime=0.017001999
%%%mzn-stat: objective=326
%%%mzn-stat: nodes=45493
%%%mzn-stat: restarts=34
%%%mzn-stat: peakDepth=474
%%%mzn-stat: solveTime=6.23245048
%%%mzn-stat: variables=807
%%%mzn-stat: propagators=1789
%%%mzn-stat: failures=30005
%%%mzn-stat: propagations=6795498
%%%mzn-stat: nogoods=30005
%%%mzn-stat: AverageConflictSize=13.599000166638893
%%%mzn-stat: NumUnitNogoodsLearned=232
%%%mzn-stat: AverageLearnedNogoodLength=35.52951174804199
%%%mzn-stat: AverageBacktrackAmount=0
%%%mzn-stat: AverageLbd=11.454724212631229
%%%mzn-stat-end
maxleg = 326;
succ = array1d(1..50,[32, 3, 15, 1, 4, 47, 8, 24, 10, 6, 5, 34, 30, 35, 22, 25, 20, 39, 33, 27, 18, 11, 17, 21, 50, 43, 42, 14, 49, 41, 46, 38, 13, 28, 19, 29, 44, 45, 9, 7, 2, 26, 16, 36, 40, 12, 23, 31, 48, 37]);
% time elapsed: 8.63 s
----------
%%%mzn-stat: initTime=0.017001999
%%%mzn-stat: objective=325
%%%mzn-stat: nodes=46240
%%%mzn-stat: restarts=35
%%%mzn-stat: peakDepth=474
%%%mzn-stat: solveTime=6.274055315
%%%mzn-stat: variables=807
%%%mzn-stat: propagators=1789
%%%mzn-stat: failures=30152
%%%mzn-stat: propagations=6836731
%%%mzn-stat: nogoods=30152
%%%mzn-stat: AverageConflictSize=13.569448129477315
%%%mzn-stat: NumUnitNogoodsLearned=232
%%%mzn-stat: AverageLearnedNogoodLength=35.51313345715044
%%%mzn-stat: AverageBacktrackAmount=0
%%%mzn-stat: AverageLbd=11.44554258423985
%%%mzn-stat-end
maxleg = 325;
succ = array1d(1..50,[32, 3, 15, 1, 4, 47, 8, 24, 10, 6, 5, 34, 30, 35, 22, 25, 20, 39, 33, 27, 18, 11, 17, 21, 50, 43, 42, 14, 49, 41, 46, 38, 13, 28, 19, 29, 44, 45, 9, 7, 2, 26, 16, 36, 40, 12, 23, 31, 48, 37]);
% time elapsed: 8.68 s
----------
%%%mzn-stat: initTime=0.017001999
%%%mzn-stat: objective=324
%%%mzn-stat: nodes=49838
%%%mzn-stat: restarts=36
%%%mzn-stat: peakDepth=474
%%%mzn-stat: solveTime=6.677033483
%%%mzn-stat: variables=807
%%%mzn-stat: propagators=1789
%%%mzn-stat: failures=32562
%%%mzn-stat: propagations=7428507
%%%mzn-stat: nogoods=32562
%%%mzn-stat: AverageConflictSize=13.15475093667465
%%%mzn-stat: NumUnitNogoodsLearned=232
%%%mzn-stat: AverageLearnedNogoodLength=34.15570296664824
%%%mzn-stat: AverageBacktrackAmount=0
%%%mzn-stat: AverageLbd=11.197745838707696
%%%mzn-stat-end
maxleg = 324;
succ = array1d(1..50,[32, 3, 15, 1, 4, 47, 8, 24, 10, 6, 5, 34, 30, 35, 22, 25, 20, 39, 33, 27, 18, 11, 17, 21, 50, 43, 42, 14, 49, 41, 46, 38, 13, 28, 19, 29, 44, 45, 9, 7, 2, 26, 16, 36, 40, 12, 23, 31, 48, 37]);
% time elapsed: 9.08 s
----------
%%%mzn-stat: initTime=0.017001999
%%%mzn-stat: objective=323
%%%mzn-stat: nodes=50714
%%%mzn-stat: restarts=37
%%%mzn-stat: peakDepth=474
%%%mzn-stat: solveTime=6.724817507
%%%mzn-stat: variables=807
%%%mzn-stat: propagators=1789
%%%mzn-stat: failures=32713
%%%mzn-stat: propagations=7470281
%%%mzn-stat: nogoods=32713
%%%mzn-stat: AverageConflictSize=13.150918595053954
%%%mzn-stat: NumUnitNogoodsLearned=232
%%%mzn-stat: AverageLearnedNogoodLength=34.12499617888913
%%%mzn-stat: AverageBacktrackAmount=0
%%%mzn-stat: AverageLbd=11.189221410448445
%%%mzn-stat-end
maxleg = 323;
succ = array1d(1..50,[32, 3, 15, 1, 4, 47, 8, 24, 10, 6, 5, 34, 30, 35, 22, 25, 20, 39, 33, 27, 18, 11, 17, 21, 50, 43, 42, 14, 49, 41, 46, 38, 13, 28, 19, 29, 44, 45, 9, 7, 2, 26, 16, 36, 40, 12, 23, 31, 48, 37]);
% time elapsed: 9.13 s
----------
%%%mzn-stat: initTime=0.017001999
%%%mzn-stat: objective=322
%%%mzn-stat: nodes=52506
%%%mzn-stat: restarts=38
%%%mzn-stat: peakDepth=474
%%%mzn-stat: solveTime=6.92596168
%%%mzn-stat: variables=807
%%%mzn-stat: propagators=1789
%%%mzn-stat: failures=33697
%%%mzn-stat: propagations=7705894
%%%mzn-stat: nogoods=33697
%%%mzn-stat: AverageConflictSize=13.07822654835742
%%%mzn-stat: NumUnitNogoodsLearned=232
%%%mzn-stat: AverageLearnedNogoodLength=33.975695165741755
%%%mzn-stat: AverageBacktrackAmount=0
%%%mzn-stat: AverageLbd=11.149657239516872
%%%mzn-stat-end
maxleg = 322;
succ = array1d(1..50,[32, 3, 15, 1, 4, 47, 8, 24, 10, 6, 5, 34, 30, 35, 22, 25, 20, 39, 33, 27, 18, 11, 17, 21, 50, 43, 42, 14, 49, 41, 46, 38, 13, 28, 19, 29, 44, 45, 9, 7, 2, 26, 16, 36, 40, 12, 23, 31, 48, 37]);
% time elapsed: 9.33 s
----------
%%%mzn-stat: initTime=0.017001999
%%%mzn-stat: objective=321
%%%mzn-stat: nodes=53241
%%%mzn-stat: restarts=39
%%%mzn-stat: peakDepth=474
%%%mzn-stat: solveTime=6.959092969
%%%mzn-stat: variables=807
%%%mzn-stat: propagators=1789
%%%mzn-stat: failures=33778
%%%mzn-stat: propagations=7731613
%%%mzn-stat: nogoods=33778
%%%mzn-stat: AverageConflictSize=13.088933625436674
%%%mzn-stat: NumUnitNogoodsLearned=232
%%%mzn-stat: AverageLearnedNogoodLength=33.98969743620108
%%%mzn-stat: AverageBacktrackAmount=0
%%%mzn-stat: AverageLbd=11.149416780152762
%%%mzn-stat-end
maxleg = 321;
succ = array1d(1..50,[32, 3, 15, 1, 4, 47, 8, 24, 10, 6, 5, 34, 30, 35, 22, 25, 20, 39, 33, 27, 18, 11, 17, 21, 50, 43, 42, 14, 49, 41, 46, 38, 13, 28, 19, 29, 44, 45, 9, 7, 2, 26, 16, 36, 40, 12, 23, 31, 48, 37]);
% time elapsed: 9.37 s
----------
%%%mzn-stat: initTime=0.017001999
%%%mzn-stat: objective=320
%%%mzn-stat: nodes=54502
%%%mzn-stat: restarts=40
%%%mzn-stat: peakDepth=474
%%%mzn-stat: solveTime=7.091763682
%%%mzn-stat: variables=807
%%%mzn-stat: propagators=1789
%%%mzn-stat: failures=34385
%%%mzn-stat: propagations=7897886
%%%mzn-stat: nogoods=34385
%%%mzn-stat: AverageConflictSize=13.027104842227715
%%%mzn-stat: NumUnitNogoodsLearned=232
%%%mzn-stat: AverageLearnedNogoodLength=33.8106150937909
%%%mzn-stat: AverageBacktrackAmount=0
%%%mzn-stat: AverageLbd=11.126130580194852
%%%mzn-stat-end
maxleg = 320;
succ = array1d(1..50,[32, 3, 15, 1, 4, 47, 8, 24, 10, 6, 5, 34, 30, 35, 22, 25, 20, 39, 33, 27, 18, 11, 17, 21, 50, 43, 42, 14, 49, 41, 46, 38, 13, 28, 19, 29, 44, 45, 9, 7, 2, 26, 16, 36, 40, 12, 23, 31, 48, 37]);
% time elapsed: 9.50 s
----------
%%%mzn-stat: initTime=0.017001999
%%%mzn-stat: objective=319
%%%mzn-stat: nodes=55510
%%%mzn-stat: restarts=41
%%%mzn-stat: peakDepth=474
%%%mzn-stat: solveTime=7.17817937
%%%mzn-stat: variables=807
%%%mzn-stat: propagators=1789
%%%mzn-stat: failures=34699
%%%mzn-stat: propagations=7971107
%%%mzn-stat: nogoods=34699
%%%mzn-stat: AverageConflictSize=13.018329058474308
%%%mzn-stat: NumUnitNogoodsLearned=232
%%%mzn-stat: AverageLearnedNogoodLength=33.86305080838064
%%%mzn-stat: AverageBacktrackAmount=0
%%%mzn-stat: AverageLbd=11.123807602524568
%%%mzn-stat-end
maxleg = 319;
succ = array1d(1..50,[32, 3, 15, 1, 4, 47, 8, 24, 10, 6, 5, 34, 30, 35, 22, 25, 20, 39, 33, 27, 18, 11, 17, 21, 50, 43, 42, 14, 49, 41, 46, 38, 13, 28, 19, 29, 44, 45, 9, 7, 2, 26, 16, 36, 40, 12, 23, 31, 48, 37]);
% time elapsed: 9.59 s
----------
%%%mzn-stat: initTime=0.017001999
%%%mzn-stat: objective=318
%%%mzn-stat: nodes=57623
%%%mzn-stat: restarts=42
%%%mzn-stat: peakDepth=474
%%%mzn-stat: solveTime=7.419615963
%%%mzn-stat: variables=807
%%%mzn-stat: propagators=1789
%%%mzn-stat: failures=35906
%%%mzn-stat: propagations=8231924
%%%mzn-stat: nogoods=35906
%%%mzn-stat: AverageConflictSize=12.920542527711246
%%%mzn-stat: NumUnitNogoodsLearned=232
%%%mzn-stat: AverageLearnedNogoodLength=33.64465548933326
%%%mzn-stat: AverageBacktrackAmount=0
%%%mzn-stat: AverageLbd=11.078176349356653
%%%mzn-stat-end
maxleg = 318;
succ = array1d(1..50,[32, 3, 15, 1, 4, 47, 8, 24, 10, 6, 5, 34, 30, 35, 22, 25, 20, 39, 33, 27, 18, 11, 17, 21, 50, 43, 42, 14, 49, 41, 46, 38, 13, 28, 19, 29, 44, 45, 9, 7, 2, 26, 16, 36, 40, 12, 23, 31, 48, 37]);
% time elapsed: 9.83 s
----------
%%%mzn-stat: initTime=0.017001999
%%%mzn-stat: objective=317
%%%mzn-stat: nodes=60632
%%%mzn-stat: restarts=43
%%%mzn-stat: peakDepth=474
%%%mzn-stat: solveTime=7.814046472
%%%mzn-stat: variables=807
%%%mzn-stat: propagators=1789
%%%mzn-stat: failures=37678
%%%mzn-stat: propagations=8611539
%%%mzn-stat: nogoods=37678
%%%mzn-stat: AverageConflictSize=12.895721641276076
%%%mzn-stat: NumUnitNogoodsLearned=232
%%%mzn-stat: AverageLearnedNogoodLength=33.49323212484739
%%%mzn-stat: AverageBacktrackAmount=0
%%%mzn-stat: AverageLbd=11.031503795318223
%%%mzn-stat-end
maxleg = 317;
succ = array1d(1..50,[32, 3, 15, 1, 4, 47, 8, 24, 10, 6, 5, 34, 30, 35, 22, 25, 20, 39, 33, 27, 18, 11, 17, 21, 50, 43, 42, 14, 49, 41, 46, 38, 13, 28, 19, 29, 44, 45, 9, 7, 2, 26, 16, 36, 40, 12, 23, 31, 48, 37]);
% time elapsed: 10.23 s
----------
%%%mzn-stat: initTime=0.017001999
%%%mzn-stat: objective=316
%%%mzn-stat: nodes=62419
%%%mzn-stat: restarts=44
%%%mzn-stat: peakDepth=474
%%%mzn-stat: solveTime=8.057377618
%%%mzn-stat: variables=807
%%%mzn-stat: propagators=1789
%%%mzn-stat: failures=38619
%%%mzn-stat: propagations=8807839
%%%mzn-stat: nogoods=38619
%%%mzn-stat: AverageConflictSize=12.883710090887904
%%%mzn-stat: NumUnitNogoodsLearned=232
%%%mzn-stat: AverageLearnedNogoodLength=33.5273570004402
%%%mzn-stat: AverageBacktrackAmount=0
%%%mzn-stat: AverageLbd=11.007923560941505
%%%mzn-stat-end
maxleg = 316;
succ = array1d(1..50,[32, 3, 15, 1, 4, 47, 8, 24, 10, 6, 5, 34, 30, 35, 22, 25, 20, 39, 33, 27, 18, 11, 17, 21, 50, 43, 42, 14, 49, 41, 46, 38, 13, 28, 19, 29, 44, 45, 9, 7, 2, 26, 16, 36, 40, 12, 23, 31, 48, 37]);
% time elapsed: 10.48 s
----------
%%%mzn-stat: initTime=0.017001999
%%%mzn-stat: objective=315
%%%mzn-stat: nodes=63132
%%%mzn-stat: restarts=45
%%%mzn-stat: peakDepth=474
%%%mzn-stat: solveTime=8.097645601
%%%mzn-stat: variables=807
%%%mzn-stat: propagators=1789
%%%mzn-stat: failures=38735
%%%mzn-stat: propagations=8839155
%%%mzn-stat: nogoods=38735
%%%mzn-stat: AverageConflictSize=12.882406092681038
%%%mzn-stat: NumUnitNogoodsLearned=232
%%%mzn-stat: AverageLearnedNogoodLength=33.52699109332645
%%%mzn-stat: AverageBacktrackAmount=0
%%%mzn-stat: AverageLbd=11.011359235833226
%%%mzn-stat-end
maxleg = 315;
succ = array1d(1..50,[32, 3, 15, 1, 4, 47, 8, 24, 10, 6, 5, 34, 30, 35, 22, 25, 20, 39, 33, 27, 18, 11, 17, 21, 50, 43, 42, 14, 49, 41, 46, 38, 13, 28, 19, 29, 44, 45, 9, 7, 2, 26, 16, 36, 40, 12, 23, 31, 48, 37]);
% time elapsed: 10.52 s
----------
%%%mzn-stat: initTime=0.017001999
%%%mzn-stat: objective=314
%%%mzn-stat: nodes=63891
%%%mzn-stat: restarts=46
%%%mzn-stat: peakDepth=474
%%%mzn-stat: solveTime=8.149788159
%%%mzn-stat: variables=807
%%%mzn-stat: propagators=1789
%%%mzn-stat: failures=38919
%%%mzn-stat: propagations=8875011
%%%mzn-stat: nogoods=38919
%%%mzn-stat: AverageConflictSize=12.873814846219071
%%%mzn-stat: NumUnitNogoodsLearned=232
%%%mzn-stat: AverageLearnedNogoodLength=33.50533158611475
%%%mzn-stat: AverageBacktrackAmount=0
%%%mzn-stat: AverageLbd=11.01271872350266
%%%mzn-stat-end
maxleg = 314;
succ = array1d(1..50,[32, 3, 15, 1, 4, 47, 8, 24, 10, 6, 5, 34, 30, 35, 22, 25, 20, 39, 33, 27, 18, 11, 17, 21, 50, 43, 42, 14, 49, 41, 46, 38, 13, 28, 19, 29, 44, 45, 9, 7, 2, 26, 16, 36, 40, 12, 23, 31, 48, 37]);
% time elapsed: 10.57 s
----------
%%%mzn-stat: initTime=0.017001999
%%%mzn-stat: objective=313
%%%mzn-stat: nodes=68098
%%%mzn-stat: restarts=47
%%%mzn-stat: peakDepth=474
%%%mzn-stat: solveTime=8.754512897
%%%mzn-stat: variables=807
%%%mzn-stat: propagators=1789
%%%mzn-stat: failures=41921
%%%mzn-stat: propagations=9458954
%%%mzn-stat: nogoods=41921
%%%mzn-stat: AverageConflictSize=12.673457217146538
%%%mzn-stat: NumUnitNogoodsLearned=232
%%%mzn-stat: AverageLearnedNogoodLength=32.58834474368455
%%%mzn-stat: AverageBacktrackAmount=0
%%%mzn-stat: AverageLbd=10.879606879606879
%%%mzn-stat-end
maxleg = 313;
succ = array1d(1..50,[32, 3, 15, 1, 4, 47, 8, 24, 10, 6, 5, 34, 30, 35, 22, 25, 20, 39, 33, 27, 18, 11, 17, 21, 50, 43, 42, 14, 49, 41, 46, 38, 13, 28, 19, 29, 44, 45, 9, 7, 2, 26, 16, 36, 40, 12, 23, 31, 48, 37]);
% time elapsed: 11.18 s
----------
%%%mzn-stat: initTime=0.017001999
%%%mzn-stat: objective=311
%%%mzn-stat: nodes=71672
%%%mzn-stat: restarts=48
%%%mzn-stat: peakDepth=474
%%%mzn-stat: solveTime=9.210132009
%%%mzn-stat: variables=807
%%%mzn-stat: propagators=1789
%%%mzn-stat: failures=44233
%%%mzn-stat: propagations=9896071
%%%mzn-stat: nogoods=44233
%%%mzn-stat: AverageConflictSize=12.603960843713969
%%%mzn-stat: NumUnitNogoodsLearned=232
%%%mzn-stat: AverageLearnedNogoodLength=31.99941220355843
%%%mzn-stat: AverageBacktrackAmount=0
%%%mzn-stat: AverageLbd=10.774557457102164
%%%mzn-stat-end
maxleg = 311;
succ = array1d(1..50,[32, 3, 15, 1, 4, 47, 8, 23, 10, 43, 5, 34, 30, 35, 22, 6, 20, 39, 33, 27, 18, 11, 17, 21, 16, 50, 42, 14, 49, 41, 46, 38, 13, 28, 19, 29, 44, 45, 9, 7, 2, 26, 36, 25, 40, 12, 24, 31, 48, 37]);
% time elapsed: 11.64 s
----------
%%%mzn-stat: initTime=0.017001999
%%%mzn-stat: objective=310
%%%mzn-stat: nodes=72224
%%%mzn-stat: restarts=49
%%%mzn-stat: peakDepth=474
%%%mzn-stat: solveTime=9.225968658
%%%mzn-stat: variables=807
%%%mzn-stat: propagators=1789
%%%mzn-stat: failures=44261
%%%mzn-stat: propagations=9905424
%%%mzn-stat: nogoods=44261
%%%mzn-stat: AverageConflictSize=12.604595467793317
%%%mzn-stat: NumUnitNogoodsLearned=232
%%%mzn-stat: AverageLearnedNogoodLength=32.001423374980234
%%%mzn-stat: AverageBacktrackAmount=0
%%%mzn-stat: AverageLbd=10.775716770972188
%%%mzn-stat-end
maxleg = 310;
succ = array1d(1..50,[32, 3, 15, 1, 4, 47, 8, 23, 10, 43, 5, 34, 30, 35, 22, 6, 20, 39, 33, 27, 18, 11, 17, 21, 16, 50, 42, 14, 49, 41, 46, 38, 13, 28, 19, 29, 44, 45, 9, 7, 2, 26, 36, 25, 40, 12, 24, 31, 48, 37]);
% time elapsed: 11.66 s
----------
%%%mzn-stat: initTime=0.017001999
%%%mzn-stat: objective=309
%%%mzn-stat: nodes=74135
%%%mzn-stat: restarts=50
%%%mzn-stat: peakDepth=474
%%%mzn-stat: solveTime=9.473867004
%%%mzn-stat: variables=807
%%%mzn-stat: propagators=1789
%%%mzn-stat: failures=45487
%%%mzn-stat: propagations=10138448
%%%mzn-stat: nogoods=45487
%%%mzn-stat: AverageConflictSize=12.5819684745092
%%%mzn-stat: NumUnitNogoodsLearned=232
%%%mzn-stat: AverageLearnedNogoodLength=31.810781102292964
%%%mzn-stat: AverageBacktrackAmount=0
%%%mzn-stat: AverageLbd=10.737375513883087
%%%mzn-stat-end
maxleg = 309;
succ = array1d(1..50,[32, 3, 15, 1, 4, 47, 8, 23, 10, 43, 5, 34, 30, 35, 22, 6, 20, 39, 33, 27, 18, 11, 17, 21, 16, 50, 42, 14, 49, 41, 46, 38, 13, 28, 19, 29, 44, 45, 9, 7, 2, 26, 36, 25, 40, 12, 24, 31, 48, 37]);
% time elapsed: 11.91 s
----------
%%%mzn-stat: initTime=0.017001999
%%%mzn-stat: objective=308
%%%mzn-stat: nodes=74770
%%%mzn-stat: restarts=51
%%%mzn-stat: peakDepth=474
%%%mzn-stat: solveTime=9.502699634
%%%mzn-stat: variables=807
%%%mzn-stat: propagators=1789
%%%mzn-stat: failures=45560
%%%mzn-stat: propagations=10158546
%%%mzn-stat: nogoods=45560
%%%mzn-stat: AverageConflictSize=12.586281826163301
%%%mzn-stat: NumUnitNogoodsLearned=232
%%%mzn-stat: AverageLearnedNogoodLength=31.813257243195785
%%%mzn-stat: AverageBacktrackAmount=0
%%%mzn-stat: AverageLbd=10.739244951712028
%%%mzn-stat-end
maxleg = 308;
succ = array1d(1..50,[32, 3, 15, 1, 4, 47, 8, 23, 10, 43, 5, 34, 30, 35, 22, 6, 20, 39, 33, 27, 18, 11, 17, 21, 16, 50, 42, 14, 49, 41, 46, 38, 13, 28, 19, 29, 44, 45, 9, 7, 2, 26, 36, 25, 40, 12, 24, 31, 48, 37]);
% time elapsed: 11.94 s
----------
%%%mzn-stat: initTime=0.017001999
%%%mzn-stat: objective=307
%%%mzn-stat: nodes=77011
%%%mzn-stat: restarts=52
%%%mzn-stat: peakDepth=474
%%%mzn-stat: solveTime=9.891587175
%%%mzn-stat: variables=807
%%%mzn-stat: propagators=1789
%%%mzn-stat: failures=46857
%%%mzn-stat: propagations=10447364
%%%mzn-stat: nogoods=46857
%%%mzn-stat: AverageConflictSize=12.713041808054292
%%%mzn-stat: NumUnitNogoodsLearned=232
%%%mzn-stat: AverageLearnedNogoodLength=32.10216189683505
%%%mzn-stat: AverageBacktrackAmount=0
%%%mzn-stat: AverageLbd=10.729111978999937
%%%mzn-stat-end
maxleg = 307;
succ = array1d(1..50,[32, 3, 15, 1, 4, 47, 8, 23, 10, 43, 5, 34, 30, 35, 22, 6, 20, 39, 33, 27, 18, 11, 17, 21, 16, 50, 42, 14, 49, 41, 46, 38, 13, 28, 19, 29, 44, 45, 9, 7, 2, 26, 36, 25, 40, 12, 24, 31, 48, 37]);
% time elapsed: 12.33 s
----------
%%%mzn-stat: initTime=0.017001999
%%%mzn-stat: objective=306
%%%mzn-stat: nodes=78207
%%%mzn-stat: restarts=53
%%%mzn-stat: peakDepth=474
%%%mzn-stat: solveTime=10.036935325
%%%mzn-stat: variables=807
%%%mzn-stat: propagators=1789
%%%mzn-stat: failures=47268
%%%mzn-stat: propagations=10532314
%%%mzn-stat: nogoods=47268
%%%mzn-stat: AverageConflictSize=12.786451722095286
%%%mzn-stat: NumUnitNogoodsLearned=232
%%%mzn-stat: AverageLearnedNogoodLength=32.26779216383177
%%%mzn-stat: AverageBacktrackAmount=0
%%%mzn-stat: AverageLbd=10.723131928577473
%%%mzn-stat-end
maxleg = 306;
succ = array1d(1..50,[32, 3, 15, 1, 4, 47, 8, 23, 10, 43, 5, 34, 30, 35, 22, 6, 20, 39, 33, 27, 18, 11, 17, 21, 16, 50, 42, 14, 49, 41, 46, 38, 13, 28, 19, 29, 44, 45, 9, 7, 2, 26, 36, 25, 40, 12, 24, 31, 48, 37]);
% time elapsed: 12.48 s
----------
%%%mzn-stat: initTime=0.017001999
%%%mzn-stat: objective=305
%%%mzn-stat: nodes=78817
%%%mzn-stat: restarts=54
%%%mzn-stat: peakDepth=474
%%%mzn-stat: solveTime=10.068927123
%%%mzn-stat: variables=807
%%%mzn-stat: propagators=1789
%%%mzn-stat: failures=47321
%%%mzn-stat: propagations=10548773
%%%mzn-stat: nogoods=47321
%%%mzn-stat: AverageConflictSize=12.79100188077175
%%%mzn-stat: NumUnitNogoodsLearned=232
%%%mzn-stat: AverageLearnedNogoodLength=32.30694617611631
%%%mzn-stat: AverageBacktrackAmount=0
%%%mzn-stat: AverageLbd=10.72764734473067
%%%mzn-stat-end
maxleg = 305;
succ = array1d(1..50,[32, 3, 15, 1, 4, 47, 8, 23, 10, 43, 5, 34, 30, 35, 22, 6, 20, 39, 33, 27, 18, 11, 17, 21, 16, 50, 42, 14, 49, 41, 46, 38, 13, 28, 19, 29, 44, 45, 9, 7, 2, 26, 36, 25, 40, 12, 24, 31, 48, 37]);
% time elapsed: 12.51 s
----------
%%%mzn-stat: initTime=0.017001999
%%%mzn-stat: objective=304
%%%mzn-stat: nodes=86075
%%%mzn-stat: restarts=57
%%%mzn-stat: peakDepth=474
%%%mzn-stat: solveTime=11.722668835
%%%mzn-stat: variables=807
%%%mzn-stat: propagators=1789
%%%mzn-stat: failures=52476
%%%mzn-stat: propagations=11776910
%%%mzn-stat: nogoods=52476
%%%mzn-stat: AverageConflictSize=13.710934522448357
%%%mzn-stat: NumUnitNogoodsLearned=232
%%%mzn-stat: AverageLearnedNogoodLength=34.51063343242625
%%%mzn-stat: AverageBacktrackAmount=0
%%%mzn-stat: AverageLbd=10.657710191325558
%%%mzn-stat-end
maxleg = 304;
succ = array1d(1..50,[32, 3, 15, 1, 4, 47, 8, 23, 10, 43, 5, 34, 30, 35, 22, 6, 20, 39, 33, 27, 18, 11, 17, 21, 16, 50, 42, 14, 31, 41, 46, 38, 13, 28, 19, 49, 44, 45, 9, 7, 2, 26, 36, 25, 40, 12, 24, 29, 48, 37]);
% time elapsed: 14.17 s
----------
%%%mzn-stat: initTime=0.017001999
%%%mzn-stat: objective=303
%%%mzn-stat: nodes=89141
%%%mzn-stat: restarts=58
%%%mzn-stat: peakDepth=474
%%%mzn-stat: solveTime=12.276668985
%%%mzn-stat: variables=807
%%%mzn-stat: propagators=1789
%%%mzn-stat: failures=54435
%%%mzn-stat: propagations=12258284
%%%mzn-stat: nogoods=54435
%%%mzn-stat: AverageConflictSize=13.821401671718563
%%%mzn-stat: NumUnitNogoodsLearned=232
%%%mzn-stat: AverageLearnedNogoodLength=34.85737117663268
%%%mzn-stat: AverageBacktrackAmount=0
%%%mzn-stat: AverageLbd=10.600881785615872
%%%mzn-stat-end
maxleg = 303;
succ = array1d(1..50,[32, 3, 15, 1, 4, 47, 8, 23, 10, 43, 5, 34, 30, 35, 22, 6, 20, 39, 33, 27, 18, 11, 17, 21, 16, 50, 42, 14, 31, 41, 46, 38, 13, 28, 19, 49, 44, 45, 9, 7, 2, 26, 36, 25, 40, 12, 24, 29, 48, 37]);
% time elapsed: 14.72 s
----------
%%%mzn-stat: initTime=0.017001999
%%%mzn-stat: objective=278
%%%mzn-stat: nodes=91402
%%%mzn-stat: restarts=62
%%%mzn-stat: peakDepth=474
%%%mzn-stat: solveTime=12.567785212
%%%mzn-stat: variables=807
%%%mzn-stat: propagators=1789
%%%mzn-stat: failures=55362
%%%mzn-stat: propagations=12465885
%%%mzn-stat: nogoods=55362
%%%mzn-stat: AverageConflictSize=13.811459123586575
%%%mzn-stat: NumUnitNogoodsLearned=232
%%%mzn-stat: AverageLearnedNogoodLength=34.928326288790146
%%%mzn-stat: AverageBacktrackAmount=0
%%%mzn-stat: AverageLbd=10.611899859109137
%%%mzn-stat-end
maxleg = 278;
succ = array1d(1..50,[32, 3, 15, 1, 4, 47, 8, 23, 10, 43, 5, 34, 30, 35, 22, 6, 20, 39, 33, 27, 18, 11, 17, 21, 16, 50, 42, 14, 37, 41, 46, 38, 13, 28, 19, 49, 44, 45, 9, 7, 2, 26, 36, 25, 40, 12, 24, 31, 48, 29]);
% time elapsed: 15.02 s
----------
%%%mzn-stat: initTime=0.017001999
%%%mzn-stat: objective=277
%%%mzn-stat: nodes=92136
%%%mzn-stat: restarts=64
%%%mzn-stat: peakDepth=474
%%%mzn-stat: solveTime=12.611682336
%%%mzn-stat: variables=807
%%%mzn-stat: propagators=1789
%%%mzn-stat: failures=55470
%%%mzn-stat: propagations=12504052
%%%mzn-stat: nogoods=55470
%%%mzn-stat: AverageConflictSize=13.814386154678205
%%%mzn-stat: NumUnitNogoodsLearned=232
%%%mzn-stat: AverageLearnedNogoodLength=34.93773210744546
%%%mzn-stat: AverageBacktrackAmount=0
%%%mzn-stat: AverageLbd=10.619127456282675
%%%mzn-stat-end
maxleg = 277;
succ = array1d(1..50,[32, 3, 15, 1, 4, 43, 8, 23, 10, 6, 5, 34, 30, 35, 20, 26, 47, 39, 33, 27, 18, 11, 17, 21, 16, 50, 42, 14, 37, 41, 46, 38, 13, 28, 19, 49, 44, 45, 9, 7, 2, 22, 36, 25, 40, 12, 24, 29, 48, 31]);
% time elapsed: 15.06 s
----------
%%%mzn-stat: initTime=0.017001999
%%%mzn-stat: objective=276
%%%mzn-stat: nodes=92904
%%%mzn-stat: restarts=65
%%%mzn-stat: peakDepth=474
%%%mzn-stat: solveTime=12.699573462
%%%mzn-stat: variables=807
%%%mzn-stat: propagators=1789
%%%mzn-stat: failures=55679
%%%mzn-stat: propagations=12553047
%%%mzn-stat: nogoods=55679
%%%mzn-stat: AverageConflictSize=13.857684225650605
%%%mzn-stat: NumUnitNogoodsLearned=232
%%%mzn-stat: AverageLearnedNogoodLength=35.06589558002119
%%%mzn-stat: AverageBacktrackAmount=0
%%%mzn-stat: AverageLbd=10.6244724222777
%%%mzn-stat-end
maxleg = 276;
succ = array1d(1..50,[32, 3, 15, 1, 4, 43, 40, 23, 10, 6, 5, 34, 30, 35, 20, 26, 47, 39, 33, 27, 18, 11, 17, 21, 16, 50, 42, 14, 37, 41, 46, 38, 13, 28, 19, 49, 44, 45, 9, 8, 2, 22, 36, 25, 7, 12, 24, 29, 48, 31]);
% time elapsed: 15.15 s
----------
%%%mzn-stat: initTime=0.017001999
%%%mzn-stat: objective=275
%%%mzn-stat: nodes=93524
%%%mzn-stat: restarts=66
%%%mzn-stat: peakDepth=474
%%%mzn-stat: solveTime=12.749707498
%%%mzn-stat: variables=807
%%%mzn-stat: propagators=1789
%%%mzn-stat: failures=55793
%%%mzn-stat: propagations=12586054
%%%mzn-stat: nogoods=55793
%%%mzn-stat: AverageConflictSize=13.87688419694227
%%%mzn-stat: NumUnitNogoodsLearned=232
%%%mzn-stat: AverageLearnedNogoodLength=35.11965658774398
%%%mzn-stat: AverageBacktrackAmount=0
%%%mzn-stat: AverageLbd=10.625938737834495
%%%mzn-stat-end
maxleg = 275;
succ = array1d(1..50,[32, 3, 15, 1, 4, 43, 40, 23, 10, 6, 5, 34, 30, 35, 20, 26, 47, 39, 33, 27, 18, 11, 17, 21, 16, 50, 42, 14, 37, 41, 46, 38, 13, 28, 19, 49, 44, 45, 9, 8, 2, 22, 36, 25, 7, 12, 24, 29, 48, 31]);
% time elapsed: 15.20 s
----------
%%%mzn-stat: initTime=0.017001999
%%%mzn-stat: objective=274
%%%mzn-stat: nodes=94040
%%%mzn-stat: restarts=67
%%%mzn-stat: peakDepth=474
%%%mzn-stat: solveTime=12.780721294
%%%mzn-stat: variables=807
%%%mzn-stat: propagators=1789
%%%mzn-stat: failures=55843
%%%mzn-stat: propagations=12605591
%%%mzn-stat: nogoods=55843
%%%mzn-stat: AverageConflictSize=13.88541088408574
%%%mzn-stat: NumUnitNogoodsLearned=232
%%%mzn-stat: AverageLearnedNogoodLength=35.14793259674445
%%%mzn-stat: AverageBacktrackAmount=0
%%%mzn-stat: AverageLbd=10.63075049692889
%%%mzn-stat-end
maxleg = 274;
succ = array1d(1..50,[32, 3, 15, 1, 4, 43, 40, 23, 10, 6, 5, 34, 30, 35, 20, 26, 47, 39, 33, 27, 18, 11, 17, 21, 16, 50, 42, 14, 37, 41, 46, 38, 13, 28, 19, 49, 44, 45, 9, 8, 2, 22, 36, 25, 7, 12, 24, 29, 48, 31]);
% time elapsed: 15.24 s
----------
%%%mzn-stat: initTime=0.017001999
%%%mzn-stat: objective=265
%%%mzn-stat: nodes=95713
%%%mzn-stat: restarts=72
%%%mzn-stat: peakDepth=474
%%%mzn-stat: solveTime=12.966984088
%%%mzn-stat: variables=807
%%%mzn-stat: propagators=1789
%%%mzn-stat: failures=56522
%%%mzn-stat: propagations=12773521
%%%mzn-stat: nogoods=56522
%%%mzn-stat: AverageConflictSize=13.8314107781041
%%%mzn-stat: NumUnitNogoodsLearned=232
%%%mzn-stat: AverageLearnedNogoodLength=35.039577509642264
%%%mzn-stat: AverageBacktrackAmount=0
%%%mzn-stat: AverageLbd=10.646332401542763
%%%mzn-stat-end
maxleg = 265;
succ = array1d(1..50,[32, 3, 15, 1, 4, 16, 40, 23, 10, 6, 5, 34, 30, 35, 20, 26, 47, 39, 33, 27, 18, 11, 17, 21, 43, 50, 42, 14, 37, 41, 46, 38, 13, 28, 19, 49, 44, 45, 9, 8, 2, 22, 36, 25, 7, 12, 24, 31, 48, 29]);
% time elapsed: 15.43 s
----------
%%%mzn-stat: initTime=0.017001999
%%%mzn-stat: objective=263
%%%mzn-stat: nodes=99369
%%%mzn-stat: restarts=74
%%%mzn-stat: peakDepth=474
%%%mzn-stat: solveTime=13.516968122
%%%mzn-stat: variables=807
%%%mzn-stat: propagators=1789
%%%mzn-stat: failures=59169
%%%mzn-stat: propagations=13343651
%%%mzn-stat: nogoods=59169
%%%mzn-stat: AverageConflictSize=13.803680981595091
%%%mzn-stat: NumUnitNogoodsLearned=232
%%%mzn-stat: AverageLearnedNogoodLength=34.506075816728355
%%%mzn-stat: AverageBacktrackAmount=0
%%%mzn-stat: AverageLbd=10.571599993239703
%%%mzn-stat-end
maxleg = 263;
succ = array1d(1..50,[4, 3, 15, 38, 32, 16, 40, 23, 10, 6, 5, 34, 30, 35, 20, 26, 47, 39, 33, 27, 18, 11, 17, 21, 43, 50, 42, 14, 37, 41, 46, 1, 13, 28, 19, 49, 44, 45, 9, 8, 2, 22, 36, 25, 7, 12, 24, 31, 48, 29]);
% time elapsed: 15.98 s
----------
%%%mzn-stat: initTime=0.017001999
%%%mzn-stat: objective=262
%%%mzn-stat: nodes=100001
%%%mzn-stat: restarts=75
%%%mzn-stat: peakDepth=474
%%%mzn-stat: solveTime=13.558989315
%%%mzn-stat: variables=807
%%%mzn-stat: propagators=1789
%%%mzn-stat: failures=59261
%%%mzn-stat: propagations=13369202
%%%mzn-stat: nogoods=59261
%%%mzn-stat: AverageConflictSize=13.80715816472891
%%%mzn-stat: NumUnitNogoodsLearned=232
%%%mzn-stat: AverageLearnedNogoodLength=34.53934290680211
%%%mzn-stat: AverageBacktrackAmount=0
%%%mzn-stat: AverageLbd=10.574171883700917
%%%mzn-stat-end
maxleg = 262;
succ = array1d(1..50,[4, 3, 15, 38, 32, 16, 40, 23, 10, 6, 5, 34, 30, 35, 20, 26, 47, 39, 33, 27, 18, 11, 17, 21, 43, 50, 42, 14, 37, 41, 46, 1, 13, 28, 19, 49, 44, 45, 9, 8, 2, 22, 36, 25, 7, 12, 24, 31, 48, 29]);
% time elapsed: 16.02 s
----------
%%%mzn-stat: initTime=0.017001999
%%%mzn-stat: objective=261
%%%mzn-stat: nodes=100845
%%%mzn-stat: restarts=76
%%%mzn-stat: peakDepth=474
%%%mzn-stat: solveTime=13.68055943
%%%mzn-stat: variables=807
%%%mzn-stat: propagators=1789
%%%mzn-stat: failures=59607
%%%mzn-stat: propagations=13435800
%%%mzn-stat: nogoods=59607
%%%mzn-stat: AverageConflictSize=13.877279514151022
%%%mzn-stat: NumUnitNogoodsLearned=232
%%%mzn-stat: AverageLearnedNogoodLength=34.68710050832956
%%%mzn-stat: AverageBacktrackAmount=0
%%%mzn-stat: AverageLbd=10.572902511449998
%%%mzn-stat-end
maxleg = 261;
succ = array1d(1..50,[4, 3, 15, 38, 32, 16, 40, 23, 10, 6, 5, 34, 30, 35, 20, 26, 47, 39, 33, 27, 18, 11, 17, 21, 43, 50, 42, 14, 37, 41, 46, 1, 13, 28, 19, 49, 44, 45, 9, 8, 2, 22, 36, 25, 7, 12, 24, 31, 48, 29]);
% time elapsed: 16.15 s
----------
%%%mzn-stat: initTime=0.017001999
%%%mzn-stat: objective=260
%%%mzn-stat: nodes=102174
%%%mzn-stat: restarts=77
%%%mzn-stat: peakDepth=474
%%%mzn-stat: solveTime=13.844133244
%%%mzn-stat: variables=807
%%%mzn-stat: propagators=1789
%%%mzn-stat: failures=60327
%%%mzn-stat: propagations=13566814
%%%mzn-stat: nogoods=60327
%%%mzn-stat: AverageConflictSize=13.857078919886618
%%%mzn-stat: NumUnitNogoodsLearned=232
%%%mzn-stat: AverageLearnedNogoodLength=34.57441941419265
%%%mzn-stat: AverageBacktrackAmount=0
%%%mzn-stat: AverageLbd=10.561788254015616
%%%mzn-stat-end
maxleg = 260;
succ = array1d(1..50,[4, 3, 15, 38, 32, 16, 40, 23, 10, 6, 5, 34, 30, 35, 20, 26, 47, 39, 33, 27, 18, 11, 17, 21, 43, 50, 42, 14, 37, 41, 46, 1, 13, 28, 19, 49, 44, 45, 9, 8, 2, 22, 36, 25, 7, 12, 24, 31, 48, 29]);
% time elapsed: 16.31 s
----------
%%%mzn-stat: initTime=0.017001999
%%%mzn-stat: objective=259
%%%mzn-stat: nodes=103367
%%%mzn-stat: restarts=78
%%%mzn-stat: peakDepth=474
%%%mzn-stat: solveTime=13.989139696
%%%mzn-stat: variables=807
%%%mzn-stat: propagators=1789
%%%mzn-stat: failures=60869
%%%mzn-stat: propagations=13674901
%%%mzn-stat: nogoods=60869
%%%mzn-stat: AverageConflictSize=13.861933003663605
%%%mzn-stat: NumUnitNogoodsLearned=232
%%%mzn-stat: AverageLearnedNogoodLength=34.53279994742808
%%%mzn-stat: AverageBacktrackAmount=0
%%%mzn-stat: AverageLbd=10.554485863083015
%%%mzn-stat-end
maxleg = 259;
succ = array1d(1..50,[4, 3, 15, 38, 32, 16, 40, 23, 10, 6, 5, 34, 30, 35, 20, 26, 47, 39, 33, 27, 18, 11, 17, 21, 43, 50, 42, 14, 37, 41, 46, 1, 13, 28, 19, 49, 44, 45, 9, 8, 2, 22, 36, 25, 7, 12, 24, 31, 48, 29]);
% time elapsed: 16.46 s
----------
%%%mzn-stat: initTime=0.017001999
%%%mzn-stat: objective=258
%%%mzn-stat: nodes=104374
%%%mzn-stat: restarts=79
%%%mzn-stat: peakDepth=474
%%%mzn-stat: solveTime=14.0651839
%%%mzn-stat: variables=807
%%%mzn-stat: propagators=1789
%%%mzn-stat: failures=61126
%%%mzn-stat: propagations=13740497
%%%mzn-stat: nogoods=61126
%%%mzn-stat: AverageConflictSize=13.850211039492196
%%%mzn-stat: NumUnitNogoodsLearned=232
%%%mzn-stat: AverageLearnedNogoodLength=34.51822465072146
%%%mzn-stat: AverageBacktrackAmount=0
%%%mzn-stat: AverageLbd=10.551516539606714
%%%mzn-stat-end
maxleg = 258;
succ = array1d(1..50,[4, 3, 15, 38, 32, 16, 40, 23, 10, 6, 5, 34, 30, 35, 20, 26, 47, 39, 33, 27, 18, 11, 17, 21, 43, 50, 42, 14, 37, 41, 46, 1, 13, 28, 19, 49, 44, 45, 9, 8, 2, 22, 36, 25, 7, 12, 24, 31, 48, 29]);
% time elapsed: 16.54 s
----------
%%%mzn-stat: initTime=0.017001999
%%%mzn-stat: objective=239
%%%mzn-stat: nodes=106865
%%%mzn-stat: restarts=80
%%%mzn-stat: peakDepth=474
%%%mzn-stat: solveTime=14.374053237
%%%mzn-stat: variables=807
%%%mzn-stat: propagators=1789
%%%mzn-stat: failures=62756
%%%mzn-stat: propagations=14138487
%%%mzn-stat: nogoods=62756
%%%mzn-stat: AverageConflictSize=13.665641532283766
%%%mzn-stat: NumUnitNogoodsLearned=232
%%%mzn-stat: AverageLearnedNogoodLength=34.23780993052457
%%%mzn-stat: AverageBacktrackAmount=0
%%%mzn-stat: AverageLbd=10.524905985085091
%%%mzn-stat-end
maxleg = 239;
succ = array1d(1..50,[45, 3, 32, 1, 15, 16, 40, 23, 10, 6, 5, 34, 30, 42, 38, 26, 47, 39, 33, 2, 18, 27, 17, 21, 43, 50, 35, 14, 37, 41, 46, 11, 13, 28, 19, 49, 44, 4, 9, 8, 20, 22, 36, 25, 7, 12, 24, 31, 48, 29]);
% time elapsed: 16.85 s
----------
==========
% time elapsed: 33.03 s
%%%mzn-stat: initTime=0.017001999
%%%mzn-stat: objective=239
%%%mzn-stat: nodes=183168
%%%mzn-stat: restarts=117
%%%mzn-stat: peakDepth=474
%%%mzn-stat: solveTime=30.550122528
%%%mzn-stat: variables=807
%%%mzn-stat: propagators=1789
%%%mzn-stat: failures=124677
%%%mzn-stat: propagations=28324750
%%%mzn-stat: nogoods=124677
%%%mzn-stat: AverageConflictSize=15.131636147805931
%%%mzn-stat: NumUnitNogoodsLearned=233
%%%mzn-stat: AverageLearnedNogoodLength=36.189184853661864
%%%mzn-stat: AverageBacktrackAmount=0
%%%mzn-stat: AverageLbd=9.499987968911668
%%%mzn-stat-end
